25
    1    11    11
    2    17    17
    3    11    11
    4     6     6
    5    17    17
    6     7     7
    7    10    10
    8    11    11
    9    15    15
   10    17    17
   11    17    17
   12    20    20
   13    16    16
   14     1     1
   15     3     3
   16    15    15
   17    16    16
   18    10    10
   19     1     1
   20     6     6
   21     3     3
   22    18    18
   23    18    18
   24     6     6
   25     7     7
131
